NAME: Random_80_4
ELLAPSED_TIME_(ms): 510
TOUR_SIZE: 1765
TOUR_SECTION
0
53
2
46
44
47
67
13
36
40
49
35
18
65
48
43
37
5
17
29
22
45
30
60
63
71
64
26
74
76
70
56
23
24
25
51
42
39
59
69
79
33
11
21
4
54
55
41
3
16
75
7
57
12
50
6
28
20
31
52
34
73
66
32
8
27
9
78
14
62
15
72
61
77
68
10
19
1
38
58
0
EOF
